Route 1: 28 196 188 136 171 63 99 173 94 162 70 46 187 60 30 108 133 16 61 72 62 122 24 92 49 160 117 82 17 7 170 165 58 66 52 105
Route 2: 178 200 41 183 65 107 142 116 35 3 199 15 155 189 47 175 9 19 89 179 54 147 146 197 161 44 195 156 79 11 23 4 14 36
Route 3: 167 40 39 119 38 166 102 98 76 8 78 191 22 134 177 150 97 151 181 43 69 31 172 87 21 163 75 154 168 51 176 114 68
Route 4: 67 132 153 10 59 93 86 118 182 45 77 33 13 12 50 32 73 96 139 81 74 103 141 100 130 112 95 120 125 109 149 152 129
Route 5: 104 137 64 198 164 174 18 57 115 26 140 192 169 131 113 84 37 27 53 56 185 180 55 123 121 124 85 88 135 1 111 157 34
Route 6: 144 42 6 29 2 148 110 184 138 143 126 90 25 128 48 145 71 20 186 127 5 194 190 80 158 101 159 106 91 83
Route 7: 193
Vehicles: 7
Distance: 2516.92
